
Gurobi 9.5.0 (win64) logging started Sun Apr 10 01:50:22 2022

Set parameter LogFile to value "../results/logs/log_com-youtube.ungraph_1_250.log"
Gurobi Optimizer version 9.5.0 build v9.5.0rc5 (win64)
Thread count: 6 physical cores, 12 logical processors, using up to 12 threads
Optimize a model with 1 rows, 2269780 columns and 0 nonzeros
Model fingerprint: 0x7bd55224
Variable types: 0 continuous, 2269780 integer (2269780 binary)
Coefficient statistics:
  Matrix range     [0e+00, 0e+00]
  Objective range  [1e+00, 1e+00]
  Bounds range     [1e+00, 1e+00]
  RHS range        [3e+02, 3e+02]
Found heuristic solution: objective 1134890.0000

Explored 0 nodes (0 simplex iterations) in 0.36 seconds (0.10 work units)
Thread count was 1 (of 12 available processors)

Solution count 1: 1.13489e+06 

Optimal solution found (tolerance 0.00e+00)
Best objective 1.134890000000e+06, best bound 1.134890000000e+06, gap 0.0000%

Gurobi 9.5.0 (win64) logging started Sun Apr 10 10:37:17 2022

Set parameter LogFile to value "../results/logs/log_com-youtube.ungraph_1_250.log"
